Collinear Magnetic Calculation
ISPIN      =  2
LASPH      = .TRUE.
GGA_COMPAT = .FALSE.
VOSKOWN    =  1
LMAXMIX    =  4
AMIX       =  0.2
BMIX       =  0.0001
AMIX_MAG   =  0.4
BMIX_MAG   =  0.0001
LPLANE     = .TRUE.
LSCALU     = .FALSE.
NSIM       =  4

MAGMOM = set up by yourself

DFT-D3 Correction
IVDW   =  11

Global Parameters
ISTART = 0
ICHARG = 2
LREAL  = Auto
ALGO   = Normal
ENCUT  = 500
PREC   = Normal
LWAVE  = .FALSE.
LCHARG = .FALSE.
LVTOT  = .FALSE.
ADDGRID= .TRUE.

Electronic Relaxation
ISMEAR = 0
SIGMA  = 0.05
NELM   = 200
NELMIN = 6
EDIFF  = 1E-06

Single Point
NSW    = 0
IBRION = -1

LORBIT = 11
NCORE  = 12
